120
1000
200
199
199
199
199
199
199
199
198
198
197
197
197
196
196
196
195
194
194
193
193
193
193
193
192
192
191
191
191
191
189
189
189
187
187
187
187
187
187
186
186
185
185
185
184
183
183
183
182
182
181
181
181
180
179
178
177
177
177
177
176
176
176
175
175
174
174
174
172
171
170
170
170
169
168
168
166
166
165
165
165
165
164
162
162
160
160
160
160
160
160
160
160
159
159
158
158
158
158
158
158
158
158
157
157
157
157
157
156
155
154
153
153
153
152
151
151
150
150
150
